677.01 0
0 57 47 63 34 69 33 65 2 23 56 30 27 21 49 58 53 41 36 38 52 6 66 37 42 60 19 13 62 48 54 64 8 32 61 10 9 59 3 25 4 43 51 7 5 40 17 39 44 16 24 46 55 68 67 26 18 12 31 45 28 29 20 15 14 22 1 11 50 35